min: 1 x1 + 1 x2 + 1 x3 + 1 x4 + 1 x5 + 1 x6 + 1 x7 + 1 x8 + 1 x9 + 1 x10 + 1 x11 + 1 x12 + 1 x13 + 1 x14 + 1 x15;

r1: x2 + x10 + x6 + x1 + x13 >= 1;
r2: x5 + x1 + x3 + x13 + x4 + x15 >= 1;
r3: x15 + x13 + x14 >= 1;
r4: x5 + x4 + x12 + x3 >= 1;
r5: x9 + x7 + x13 + x1 >= 1;
r6: x13 + x11 + x9 >= 1;
r7: x6 + x13 >= 1;
r8: x7 + x3 + x13 + x11 >= 1;
r9: x9 + x5 + x3 >= 1;
r10: x6 + x8 + x15 + x10 >= 1;
r11: x7 + x2 + x11 >= 1;
r12: x11 + x8 >= 1;
r13: x8 + x7 + x10 >= 1;
r14: x8 + x10 + x11 >= 1;
r15: x11 + x1 + x9 + x7 + x2 + x5 >= 1;
r16: x11 + x12 + x14 + x1 + x6 >= 1;
r17: x8 >= 1;
r18: x6 + x9 + x4 + x8 + x13 >= 1;
r19: x14 >= 1;
r20: x1 + x4 + x8 + x10 >= 1;
r21: x14 + x8 + x15 >= 1;
r22: x2 + x11 + x9 + x8 + x3 + x15 >= 1;
r23: x6 + x11 + x12 + x9 + x10 + x3 >= 1;
r24: x10 + x8 + x9 >= 1;
r25: x9 + x3 + x1 + x7 + x14 + x5 >= 1;
r26: x5 + x11 + x6 >= 1;
r27: x3 >= 1;
r28: x9 + x7 + x1 >= 1;
r29: x8 + x1 + x13 + x6 + x2 >= 1;
r30: x15 + x11 + x12 + x5 >= 1;
r31: x12 + x11 + x5 + x8 >= 1;
r32: x12 + x15 + x14 + x5 + x2 >= 1;
r33: x14 + x13 + x5 + x9 + x8 >= 1;
r34: x3 >= 1;
r35: x6 >= 1;
r36: x14 + x3 >= 1;
r37: x11 + x4 + x3 + x15 + x7 >= 1;
r38: x8 >= 1;
r39: x13 + x1 + x8 + x5 + x11 + x7 >= 1;
r40: x9 + x6 >= 1;
r41: x1 + x8 >= 1;
r42: x4 + x9 + x11 + x14 + x8 + x2 >= 1;
r43: x9 + x2 + x8 + x1 + x11 >= 1;
r44: x11 >= 1;
r45: x15 + x8 >= 1;
r46: x4 + x8 + x6 + x3 + x11 + x15 >= 1;
r47: x12 + x5 + x14 + x10 + x2 + x3 >= 1;
r48: x13 >= 1;
r49: x12 + x15 + x4 + x2 >= 1;
r50: x1 + x8 + x13 >= 1;

bin x1, x2, x3, x4, x5, x6, x7, x8, x9, x10, x11, x12, x13, x14, x15;
